etc/upTests/__issues/207-relation-dense/0003.eprime
language ESSENCE' 1.0

find x_RelationIntMatrix2: matrix indexed by [int(1..4), int(1..3)] of bool
such that
    x_RelationIntMatrix2[1, 1],
    x_RelationIntMatrix2[1, 2],
    x_RelationIntMatrix2[1, 3],
    x_RelationIntMatrix2[2, 1],
    x_RelationIntMatrix2[2, 2],
    x_RelationIntMatrix2[2, 3],
    x_RelationIntMatrix2[3, 1],
    x_RelationIntMatrix2[3, 2],
    x_RelationIntMatrix2[3, 3],
    x_RelationIntMatrix2[4, 1],
    x_RelationIntMatrix2[4, 2],
    x_RelationIntMatrix2[4, 3]
