etc/upTests/__issues/207-relation-dense/0003.eprime.solution
language ESSENCE' 1.0
$ minion Nodes: 1
$ minion TotalTime: 0.000558
$ Savile Row TotalTime: 0.174
letting x_RelationIntMatrix2 be [[true, true, true;int(1..3)], 
[true, true, true;int(1..3)], 
[true, true, true;int(1..3)], 
[true, true, true;int(1..3)];int(1..4)]
